c *********************************
c * Circuit generated by BenCGen
c *
c * Parity_38
c *
c * Ports with 1 gate(s): 1
c * Ports with 2 gate(s): 38
c * Total gates: 39
c *********************************
p cnf 77 153
1 41 0
-1 -41 0
1 -40 0
41 -40 0
-1 -41 40 0
1 2 -42 0
-1 2 42 0
1 -2 42 0
-1 -2 -42 0
3 4 -43 0
-3 4 43 0
3 -4 43 0
-3 -4 -43 0
5 6 -44 0
-5 6 44 0
5 -6 44 0
-5 -6 -44 0
7 8 -45 0
-7 8 45 0
7 -8 45 0
-7 -8 -45 0
9 10 -46 0
-9 10 46 0
9 -10 46 0
-9 -10 -46 0
11 12 -47 0
-11 12 47 0
11 -12 47 0
-11 -12 -47 0
13 14 -48 0
-13 14 48 0
13 -14 48 0
-13 -14 -48 0
15 16 -49 0
-15 16 49 0
15 -16 49 0
-15 -16 -49 0
17 18 -50 0
-17 18 50 0
17 -18 50 0
-17 -18 -50 0
19 20 -51 0
-19 20 51 0
19 -20 51 0
-19 -20 -51 0
21 22 -52 0
-21 22 52 0
21 -22 52 0
-21 -22 -52 0
23 24 -53 0
-23 24 53 0
23 -24 53 0
-23 -24 -53 0
25 26 -54 0
-25 26 54 0
25 -26 54 0
-25 -26 -54 0
27 28 -55 0
-27 28 55 0
27 -28 55 0
-27 -28 -55 0
29 30 -56 0
-29 30 56 0
29 -30 56 0
-29 -30 -56 0
31 32 -57 0
-31 32 57 0
31 -32 57 0
-31 -32 -57 0
33 34 -58 0
-33 34 58 0
33 -34 58 0
-33 -34 -58 0
35 36 -59 0
-35 36 59 0
35 -36 59 0
-35 -36 -59 0
37 38 -60 0
-37 38 60 0
37 -38 60 0
-37 -38 -60 0
42 43 -61 0
-42 43 61 0
42 -43 61 0
-42 -43 -61 0
44 45 -62 0
-44 45 62 0
44 -45 62 0
-44 -45 -62 0
46 47 -63 0
-46 47 63 0
46 -47 63 0
-46 -47 -63 0
48 49 -64 0
-48 49 64 0
48 -49 64 0
-48 -49 -64 0
50 51 -65 0
-50 51 65 0
50 -51 65 0
-50 -51 -65 0
52 53 -66 0
-52 53 66 0
52 -53 66 0
-52 -53 -66 0
54 55 -67 0
-54 55 67 0
54 -55 67 0
-54 -55 -67 0
56 57 -68 0
-56 57 68 0
56 -57 68 0
-56 -57 -68 0
58 59 -69 0
-58 59 69 0
58 -59 69 0
-58 -59 -69 0
61 62 -70 0
-61 62 70 0
61 -62 70 0
-61 -62 -70 0
63 64 -71 0
-63 64 71 0
63 -64 71 0
-63 -64 -71 0
65 66 -72 0
-65 66 72 0
65 -66 72 0
-65 -66 -72 0
67 68 -73 0
-67 68 73 0
67 -68 73 0
-67 -68 -73 0
69 60 -74 0
-69 60 74 0
69 -60 74 0
-69 -60 -74 0
70 71 -75 0
-70 71 75 0
70 -71 75 0
-70 -71 -75 0
72 73 -76 0
-72 73 76 0
72 -73 76 0
-72 -73 -76 0
75 76 -77 0
-75 76 77 0
75 -76 77 0
-75 -76 -77 0
77 74 -39 0
-77 74 39 0
77 -74 39 0
-77 -74 -39 0
